(set-logic ALL)
(set-option :produce-models true)
(define-fun-rec str.toLower ((x String)) String
  (ite (= x "")
      ""
      (let ((Head (str.at x 0)))
        (str.++ 
          (ite (and (<= 65 (str.to_code Head)) 
                     (<= (str.to_code Head) 90))
               (str.from_code (+ (str.to_code Head) 32))
               Head)
          (str.toLower (str.substr x 1 (- (str.len x) 1)))))))
(declare-fun sym807 () String)
(declare-fun sym205 () String)
(declare-fun sym547 () String)
(declare-fun sym1659 () String)
(declare-fun sym3628 () String)
(declare-fun sym2757 () String)
(declare-fun sym4869 () String)
(declare-fun sym1446 () String)
(declare-fun sym3415 () String)
(declare-fun sym2986 () String)
(declare-fun sym2544 () String)
(declare-fun sym3843 () String)
(declare-fun sym2335 () String)
(declare-fun sym1882 () String)
(declare-fun sym1233 () String)
(declare-fun sym4269 () String)
(declare-fun sym3189 () String)
(declare-fun sym1020 () String)
(declare-fun sym4684 () String)
(declare-fun sym4056 () String)
(declare-fun sym161 () String)
(declare-fun sym2095 () String)
(declare-fun sym4492 () String)
(define-fun Alphabet () RegLan 
	(re.* (re.union (str.to_re "A") (str.to_re "B") (str.to_re "C") (str.to_re "D") (str.to_re "E") (str.to_re "F") (str.to_re "G") (str.to_re "H") (str.to_re "I") (str.to_re "J") (str.to_re "K") (str.to_re "L") (str.to_re "M") (str.to_re "N") (str.to_re "O") (str.to_re "P") (str.to_re "Q") (str.to_re "R") (str.to_re "S") (str.to_re "T") (str.to_re "U") (str.to_re "V") (str.to_re "W") (str.to_re "X") (str.to_re "Y") (str.to_re "Z") (str.to_re "a") (str.to_re "b") (str.to_re "c") (str.to_re "d") (str.to_re "e") (str.to_re "f") (str.to_re "g") (str.to_re "h") (str.to_re "i") (str.to_re "j") (str.to_re "k") (str.to_re "l") (str.to_re "m") (str.to_re "n") (str.to_re "o") (str.to_re "p") (str.to_re "q") (str.to_re "r") (str.to_re "s") (str.to_re "t") (str.to_re "u") (str.to_re "v") (str.to_re "w") (str.to_re "x") (str.to_re "y") (str.to_re "z") ))
)

(assert (str.in_re sym4492 Alphabet))
(assert (str.in_re sym2095 Alphabet))
(assert (str.in_re sym161 Alphabet))
(assert (str.in_re sym4056 Alphabet))
(assert (str.in_re sym4684 Alphabet))
(assert (str.in_re sym1020 Alphabet))
(assert (str.in_re sym3189 Alphabet))
(assert (str.in_re sym4269 Alphabet))
(assert (str.in_re sym1233 Alphabet))
(assert (str.in_re sym1882 Alphabet))
(assert (str.in_re sym2335 Alphabet))
(assert (str.in_re sym3843 Alphabet))
(assert (str.in_re sym2544 Alphabet))
(assert (str.in_re sym2986 Alphabet))
(assert (str.in_re sym3415 Alphabet))
(assert (str.in_re sym1446 Alphabet))
(assert (str.in_re sym4869 Alphabet))
(assert (str.in_re sym2757 Alphabet))
(assert (str.in_re sym3628 Alphabet))
(assert (str.in_re sym1659 Alphabet))
(assert (str.in_re sym547 Alphabet))
(assert (str.in_re sym205 Alphabet))
(assert (str.in_re sym807 Alphabet))(assert (<= 1 (str.len sym1882 )))
(assert (<= 1 (str.len sym1020 )))
(assert (<= 1 (str.len sym1233 )))
(assert (<= 1 (str.len sym3843 )))
(assert (<= 1 (str.len sym4269 )))
(assert (<= 1 (str.len sym1659 )))
(assert (<= 1 (str.len sym4684 )))
(assert (<= 1 (str.len sym3415 )))
(assert (<= 1 (str.len sym3628 )))
(assert (<= 1 (str.len sym4056 )))
(assert (<= 1 (str.len sym547 )))
(assert (<= 1 (str.len sym1446 )))
(assert (<= 1 (str.len sym2095 )))
(assert (<= 1 (str.len sym205 )))
(assert (<= 1 (str.len sym4492 )))
(assert (<= 1 (str.len sym807 )))
(assert (<= 1 (str.len sym2335 )))
(assert (<= 1 (str.len sym3189 )))
(assert (<= 1 (str.len sym2544 )))
(assert (<= 1 (str.len sym4869 )))
(assert (<= 1 (str.len sym2757 )))
(assert (<= 1 (str.len sym2986 )))

(assert (not (= (str.toLower (str.substr sym3628  0 1))"r" )))
(assert (not (= (str.toLower (str.substr sym2095  0 1))"q" )))
(assert (not (= "" sym2544 )))
(assert (not (= "" sym4269 )))
(assert (not (= (str.toLower (str.substr sym3843  0 1))"p" )))
(assert (not (= (str.toLower (str.substr sym4492  0 1))"k" )))
(assert (not (= (str.toLower (str.substr sym1020  0 1))"p" )))
(assert (not (= (str.toLower (str.substr sym1446  0 1))"p" )))
(assert (not (= (str.toLower (str.substr sym1882  0 1))"q" )))
(assert (= "y" "y" ))
(assert (not (= (str.toLower (str.substr sym2095  0 1))"p" )))
(assert (= (str.toLower (str.substr sym3415  0 1))"k" ))
(assert (not (= "" sym3189 )))
(assert (= (str.toLower (str.substr sym547  0 1))"k" ))
(assert (not (= (str.toLower (str.substr sym1659  0 1))"g" )))
(assert (not (= (str.toLower (str.substr sym807  0 1))"p" )))
(assert (= (str.toLower (str.substr sym2757  0 1))"k" ))
(assert (not (= (str.toLower (str.substr sym2757  0 1))"q" )))
(assert (not (= (str.toLower (str.substr sym2544  0 1))"p" )))
(assert (= (str.toLower (str.substr sym1020  0 1))"k" ))
(assert (not (= (str.toLower (str.substr sym4269  0 1))"p" )))
(assert (not (= "" sym547 )))
(assert (= (str.toLower (str.substr sym1659  0 1))"h" ))
(assert (not (= "" sym3628 )))
(assert (not (= (str.toLower (str.substr sym3628  0 1))"g" )))
(assert (not (= "" sym205 )))
(assert (not (= "" sym161 )))
(assert (not (= (str.toLower (str.substr sym1233  0 1))"q" )))
(assert (not (= (str.toLower (str.substr sym2757  0 1))"p" )))
(assert (not (= "" sym2986 )))
(assert (not (= "" sym4492 )))
(assert (not (= (str.toLower (str.substr sym3415  0 1))"q" )))
(assert (not (= (str.toLower (str.substr sym4269  0 1))"q" )))
(assert (not (= (str.toLower (str.substr sym547  0 1))"p" )))
(assert (not (= (str.toLower (str.substr sym2335  0 1))"k" )))
(assert (not (= "" sym3415 )))
(assert (not (= "y" "n" )))
(assert (= (str.toLower (str.substr sym2335  0 1))"r" ))
(assert (not (= (str.toLower (str.substr sym4869  0 1))"q" )))
(assert (not (= (str.toLower (str.substr sym4684  0 1))"g" )))
(assert (not (= (str.toLower (str.substr sym1659  0 1))"r" )))
(assert (not (= (str.toLower (str.substr sym2335  0 1))"q" )))
(assert (not (= (str.toLower (str.substr sym3628  0 1))"k" )))
(assert (not (= "" sym1233 )))
(assert (not (= "" sym1020 )))
(assert (not (= "" sym2335 )))
(assert (= (str.toLower (str.substr sym4269  0 1))"k" ))
(assert (not (= "" sym4684 )))
(assert (not (= (str.toLower (str.substr sym1446  0 1))"q" )))
(assert (not (= (str.toLower (str.substr sym4492  0 1))"g" )))
(assert (not (= "" sym807 )))
(assert (not (= (str.toLower (str.substr sym547  0 1))"q" )))
(assert (not (= (str.toLower (str.substr sym1233  0 1))"p" )))
(assert (not (= (str.toLower (str.substr sym4869  0 1))"g" )))
(assert (= (str.toLower (str.substr sym4492  0 1))"r" ))
(assert (not (= (str.toLower (str.substr sym4056  0 1))"q" )))
(assert (not (= "" sym1446 )))
(assert (= (str.toLower (str.substr sym3628  0 1))"h" ))
(assert (= "" "" ))
(assert (not (= "" sym1882 )))
(assert (= (str.toLower (str.substr sym3189  0 1))"r" ))
(assert (not (= "" sym4056 )))
(assert (= (str.toLower (str.substr sym2095  0 1))"k" ))
(assert (not (= (str.toLower (str.substr sym1659  0 1))"k" )))
(assert (not (= (str.toLower (str.substr sym2544  0 1))"q" )))
(assert (= (str.toLower (str.substr sym3843  0 1))"k" ))
(assert (not (= (str.toLower (str.substr sym4684  0 1))"q" )))
(assert (not (= (str.toLower (str.substr sym3189  0 1))"q" )))
(assert (not (= (str.toLower (str.substr sym3843  0 1))"q" )))
(assert (= (str.toLower (str.substr sym1233  0 1))"k" ))
(assert (not (= (str.toLower (str.substr sym1882  0 1))"p" )))
(assert (not (= "" sym2757 )))
(assert (not (= (str.toLower (str.substr sym3189  0 1))"g" )))
(assert (not (= (str.toLower (str.substr sym3189  0 1))"k" )))
(assert (not (= (str.toLower (str.substr sym4684  0 1))"k" )))
(assert (= (str.toLower (str.substr sym1446  0 1))"k" ))
(assert (not (= (str.toLower (str.substr sym1659  0 1))"l" )))
(assert (not (= (str.toLower (str.substr sym4869  0 1))"k" )))
(assert (not (= "" "y" )))
(assert (= (str.toLower (str.substr sym205  0 1))"y" ))
(assert (not (= (str.toLower (str.substr sym1659  0 1))"p" )))
(assert (not (= (str.toLower (str.substr sym4869  0 1))"p" )))
(assert (= (str.toLower (str.substr sym2986  0 1))"k" ))
(assert (not (= (str.toLower (str.substr sym4492  0 1))"p" )))
(assert (not (= (str.toLower (str.substr sym4492  0 1))"q" )))
(assert (not (= "" (str.toLower (str.substr sym205  0 1)))))
(assert (not (= (str.toLower (str.substr sym3189  0 1))"p" )))
(assert (not (= "" sym4869 )))
(assert (= (str.toLower (str.substr sym4056  0 1))"k" ))
(assert (not (= (str.toLower (str.substr sym4056  0 1))"p" )))
(assert (not (= (str.toLower (str.substr sym1020  0 1))"q" )))
(assert (not (= (str.toLower (str.substr sym4684  0 1))"p" )))
(assert (= (str.toLower (str.substr sym1882  0 1))"k" ))
(assert (not (= "" sym2095 )))
(assert (= (str.toLower (str.substr sym807  0 1))"k" ))
(assert (= (str.toLower (str.substr sym4869  0 1))"r" ))
(assert (not (= (str.toLower (str.substr sym2986  0 1))"p" )))
(assert (not (= (str.toLower (str.substr sym1659  0 1))"q" )))
(assert (not (= "" sym3843 )))
(assert (not (= (str.toLower (str.substr sym3415  0 1))"p" )))
(assert (= (str.toLower (str.substr sym2544  0 1))"k" ))
(assert (not (= (str.toLower (str.substr sym3628  0 1))"p" )))
(assert (not (= (str.toLower (str.substr sym2335  0 1))"p" )))
(assert (not (= (str.toLower (str.substr sym807  0 1))"q" )))
(assert (not (= "" "y" )))
(assert (not (= "" "q" )))
(assert (not (= (str.toLower (str.substr sym2335  0 1))"g" )))
(assert (not (= (str.toLower (str.substr sym3628  0 1))"l" )))
(assert (= (str.toLower (str.substr sym4684  0 1))"r" ))
(assert (not (= "" sym1659 )))
(assert (not (= (str.toLower (str.substr sym3628  0 1))"q" )))
(assert (not (= (str.toLower (str.substr sym2986  0 1))"q" )))
(check-sat)
(get-model)
(exit)
